20191121 37700.00 36500.00
20180426 25000.00 22300.00
20170912 24953.76 19027.40
20170426 25790.12 17068.91
20170303 23963.27 17070.48
20160630 22050.73 17075.54
20160616 22050.73 17075.54
20151231 22938.00 17173.11
20150914 22938.00 17178.11
